TITLE lp

! Objective function
MINIMIZE
 +Sd' +Sc' +Sb' +Sa' +Ssub4' +Ssub4 +Ssub3' +Ssub2' +Ssub1' +Sint13' +Sint13 +SF7 +SF6 +SF5 +SF4 +SF3 +SF2 +SF1 +180 T_max

! Constraints
SUBJECT TO
 +Td' -td' = 0
 -Td' +TF3 -tF3 >= 0
 -Td' +TF6 -tF6 >= 0
 -Td' +TF7 -tF7 >= 0
 -Td' +Tsub1' -tsub1' >= 0
 -Td' +Tsub3' -tsub3' >= 0
 +2.58783 Sd' -0.226304 Ssub3' -0.226304 Ssub1' -0.226304 SF7 -0.226304 SF6 -0.226304 SF3 +td' >= 5.50783
 +1.10907 Sd' -0.145481 Ssub3' -0.145481 Ssub1' -0.145481 SF7 -0.145481 SF6 -0.145481 SF3 +td' >= 3.85146
 +0.616149 Sd' -0.107764 Ssub3' -0.107764 Ssub1' -0.107764 SF7 -0.107764 SF6 -0.107764 SF3 +td' >= 3.07849
 +Tc' -tc' = 0
 +TF3 -tF3 -Tc' >= 0
 -Tc' +TF4 -tF4 >= 0
 +TF7 -tF7 -Tc' >= 0
 +1.59016 Sc' -0.226304 SF7 -0.226304 SF4 -0.226304 SF3 +tc' >= 3.75259
 +0.681495 Sc' -0.145481 SF7 -0.145481 SF4 -0.145481 SF3 +tc' >= 2.72309
 +0.378608 Sc' -0.107764 SF7 -0.107764 SF4 -0.107764 SF3 +tc' >= 2.24266
 +Tb' -tb' = 0
 -Tb' +TF2 -tF2 >= 0
 +TF6 -tF6 -Tb' >= 0
 +TF7 -tF7 -Tb' >= 0
 -Tb' +Tsub2' -tsub2' >= 0
 +2.19869 Sb' -0.226304 Ssub2' -0.226304 SF7 -0.226304 SF6 -0.226304 SF2 +tb' >= 4.92275
 +0.942297 Sb' -0.145481 Ssub2' -0.145481 SF7 -0.145481 SF6 -0.145481 SF2 +tb' >= 3.47534
 +0.523499 Sb' -0.107764 Ssub2' -0.107764 SF7 -0.107764 SF6 -0.107764 SF2 +tb' >= 2.79988
 +Ta' -ta' = 0
 -Ta' +TF1 -tF1 >= 0
 -Ta' +TF5 -tF5 >= 0
 +Tsub2' -tsub2' -Ta' >= 0
 +Tsub3' -tsub3' -Ta' >= 0
 +1.97929 Sa' -0.226304 Ssub3' -0.226304 Ssub2' -0.226304 SF5 -0.226304 SF1 +ta' >= 4.33767
 +0.848267 Sa' -0.145481 Ssub3' -0.145481 Ssub2' -0.145481 SF5 -0.145481 SF1 +ta' >= 3.09922
 +0.471259 Sa' -0.107764 Ssub3' -0.107764 Ssub2' -0.107764 SF5 -0.107764 SF1 +ta' >= 2.52127
 +TF7 -tF7 -Tsub4' >= 0
 +0.811889 Ssub4' -0.226304 SF7 +tsub4' >= 2.58243
 +0.347952 Ssub4' -0.145481 SF7 +tsub4' >= 1.97085
 +0.193307 Ssub4' -0.107764 SF7 +tsub4' >= 1.68544
 +Tsub4 -tsub4 = 0
 +Tsub4' -tsub4' -Tsub4 >= 0
 -0.226304 Ssub4' +0.811889 Ssub4 +tsub4 >= 2.95243
 -0.145481 Ssub4' +0.347952 Ssub4 +tsub4 >= 2.34085
 -0.107764 Ssub4' +0.193307 Ssub4 +tsub4 >= 2.05544
 +TF7 -tF7 -Tsub3' >= 0
 +0.811888 Ssub3' -0.226304 SF7 +tsub3' >= 4.80243
 +0.347952 Ssub3' -0.145481 SF7 +tsub3' >= 4.19085
 +0.193307 Ssub3' -0.107764 SF7 +tsub3' >= 3.90544
 +TF3 -tF3 -Tsub2' >= 0
 +0.811889 Ssub2' -0.226304 SF3 +tsub2' >= 3.32243
 +0.347952 Ssub2' -0.145481 SF3 +tsub2' >= 2.71085
 +0.193307 Ssub2' -0.107764 SF3 +tsub2' >= 2.42544
 -Tsub1' +TF2 -tF2 >= 0
 +0.811889 Ssub1' -0.226304 SF2 +tsub1' >= 3.69243
 +0.347952 Ssub1' -0.145481 SF2 +tsub1' >= 3.08085
 +0.193307 Ssub1' -0.107764 SF2 +tsub1' >= 2.79544
 +TF1 -tF1 -Tint13' >= 0
 +TF4 -tF4 -Tint13' >= 0
 +TF5 -tF5 -Tint13' >= 0
 +TF6 -tF6 -Tint13' >= 0
 +1.97929 Sint13' -0.226304 SF6 -0.226304 SF5 -0.226304 SF4 -0.226304 SF1 +tint13' >= 4.33767
 +0.848267 Sint13' -0.145481 SF6 -0.145481 SF5 -0.145481 SF4 -0.145481 SF1 +tint13' >= 3.09922
 +0.471259 Sint13' -0.107764 SF6 -0.107764 SF5 -0.107764 SF4 -0.107764 SF1 +tint13' >= 2.52127
 +Tint13 -tint13 = 0
 +TF1 -tF1 -Tint13 >= 0
 +TF5 -tF5 -Tint13 >= 0
 +Tint13' -tint13' -Tint13 >= 0
 +Tsub1' -tsub1' -Tint13 >= 0
 +Tsub2' -tsub2' -Tint13 >= 0
 +Tsub3' -tsub3' -Tint13 >= 0
 -0.226304 Ssub3' -0.226304 Ssub2' -0.226304 Ssub1' -0.226304 Sint13' +3.19637 Sint13 -0.226304 SF5 -0.226304 SF1 +tint13 >= 7.04799
 -0.145481 Ssub3' -0.145481 Ssub2' -0.145481 Ssub1' -0.145481 Sint13' +1.36987 Sint13 -0.145481 SF5 -0.145481 SF1 +tint13 >= 4.97371
 -0.107764 Ssub3' -0.107764 Ssub2' -0.107764 Ssub1' -0.107764 Sint13' +0.761039 Sint13 -0.107764 SF5 -0.107764 SF1 +tint13 >= 4.00571
 +T_max -TF7 >= 0
 +0.727024 SF7 +tF7 >= 5.02873
 +0.311582 SF7 +tF7 >= 4.33633
 +0.173101 SF7 +tF7 >= 4.01321
 +T_max -TF6 >= 0
 +0.727025 SF6 +tF6 >= 4.28873
 +0.311582 SF6 +tF6 >= 3.59633
 +0.173101 SF6 +tF6 >= 3.27321
 +T_max -TF5 >= 0
 +0.727024 SF5 +tF5 >= 3.91873
 +0.311582 SF5 +tF5 >= 3.22633
 +0.173101 SF5 +tF5 >= 2.90321
 +T_max -TF4 >= 0
 +0.727025 SF4 +tF4 >= 4.28873
 +0.311582 SF4 +tF4 >= 3.59633
 +0.173101 SF4 +tF4 >= 3.27321
 +T_max -TF3 >= 0
 +0.727024 SF3 +tF3 >= 5.02873
 +0.311582 SF3 +tF3 >= 4.33633
 +0.173101 SF3 +tF3 >= 4.01321
 +T_max -TF2 >= 0
 +0.727024 SF2 +tF2 >= 5.02873
 +0.311582 SF2 +tF2 >= 4.33633
 +0.173101 SF2 +tF2 >= 4.01321
 +T_max -TF1 >= 0
 +0.727024 SF1 +tF1 >= 4.65873
 +0.311582 SF1 +tF1 >= 3.96633
 +0.173101 SF1 +tF1 >= 3.64321

END

! Variable bounds
SLB Sd' 1
SUB Sd' 3
SLB Sc' 1
SUB Sc' 3
SLB Sb' 1
SUB Sb' 3
SLB Sa' 1
SUB Sa' 3
SLB Ssub4' 1
SUB Ssub4' 3
SLB Ssub4 1
SUB Ssub4 3
SLB Ssub3' 1
SUB Ssub3' 3
SLB Ssub2' 1
SUB Ssub2' 3
SLB Ssub1' 1
SUB Ssub1' 3
SLB Sint13' 1
SUB Sint13' 3
SLB Sint13 1
SUB Sint13 3
SLB SF7 1
SUB SF7 3
SLB SF6 1
SUB SF6 3
SLB SF5 1
SUB SF5 3
SLB SF4 1
SUB SF4 3
SLB SF3 1
SUB SF3 3
SLB SF2 1
SUB SF2 3
SLB SF1 1
SUB SF1 3

! Integer definitions
GIN Sd'
GIN Sc'
